NAME : LRC2_6_6
TYPE : PDPTW
DIMENSION : 150
EDGE_WEIGHT_TYPE : EXACT_2D
NODE_COORD_SECTION
1 1 0
2 150 0
3 0 0
4 -12 3407
5 0 2
6 270 510
7 3 199
8 2224 10
9 61 84
10 10 0
11 103 20
12 0 36
13 10 164
14 311 7
15 2520 2760
16 8 230
17 1702 10
18 55 68
19 10 0
20 180 -10
21 247 0
22 -30 1165
23 0 12
24 695 935
25 13 257
26 832 10
27 57 155
28 10 0
29 26 -10
30 423 0
31 10 373
32 578 17
33 848 1088
34 18 89
35 1192 10
36 84 231
37 10 597
38 240 17
39 0 305
40 20 701
41 339 22
42 494 734
43 23 180
44 333 10
45 240 73
46 10 0
47 265 20
48 0 337
49 20 301
50 78 27
51 636 876
52 28 160
53 418 10
54 289 130
55 10 520
56 255 -20
57 521 0
58 -20 1348
59 0 32
60 2268 2508
61 33 115
62 351 10
63 250 228
64 10 0
65 89 -31
66 571 0
67 -20 210
68 0 37
69 68 308
70 38 159
71 721 10
72 47 277
73 10 0
74 269 17
75 0 196
76 30 833
77 11 42
78 467 707
79 43 74
80 3398 10
81 140 140
82 10 0
83 241 -30
84 569 0
85 20 273
86 18 47
87 205 445
88 48 136
89 2557 10
90 250 124
91 10 0
92 299 -20
93 376 0
94 10 791
95 432 52
96 353 593
97 53 212
98 896 10
99 259 59
100 10 0
101 104 21
102 0 475
103 -20 598
104 0 57
105 2458 2698
106 58 57
107 1023 10
108 232 121
109 10 361
110 132 10
111 0 320
112 -7 1423
113 0 62
114 531 771
115 63 143
116 279 10
117 248 41
118 10 70
119 263 30
120 0 406
121 20 295
122 425 67
123 393 633
124 68 259
125 1204 10
126 38 139
127 10 0
128 41 14
129 0 64
130 10 483
131 272 72
132 806 1046
133 73 102
134 3554 0
135 43 286
136 10 0
137 160 -10
138 490 0
139 13 378
140 239 77
141 752 992
142 78 88
143 2716 10
144 122 127
145 10 0
146 63 10
147 0 12
148 16 270
149 445 82
150 2502 2742
PICKUP_AND_DELIVERY_SECTION
1 0 0 0 0 0 0
2 0 0 0 0 4823 0
3 0 0 0 0 0 125
4 0 0 0 0 10 10
5 0 0 0 0 107 107
6 0 0 0 0 0 0
7 0 0 0 0 13 13
8 0 0 0 0 300 0
9 0 0 0 0 1274 1274
10 0 0 0 0 5 5
11 0 0 0 0 333 333
12 0 0 0 0 143 143
13 0 0 0 0 10 10
14 0 0 0 0 141 141
15 0 0 0 0 0 0
16 0 0 0 0 -24 -24
17 0 0 0 0 0 0
18 0 0 0 0 510 510
19 0 0 0 0 10 10
20 0 0 0 0 1668 1668
21 0 0 0 0 159 159
22 0 0 0 0 10 10
23 0 0 0 0 4 4
24 0 0 0 0 80 80
25 0 0 0 0 10 10
26 0 0 0 0 593 0
27 0 0 0 0 347 347
28 0 0 0 0 15 15
29 0 0 0 0 2439 2439
30 0 0 0 0 231 231
31 0 0 0 0 10 10
32 0 0 0 0 132 132
33 0 0 0 0 150 150
34 0 0 0 0 -20 -20
35 0 0 0 0 0 0
36 0 0 0 0 2118 2118
37 0 0 0 0 20 0
38 0 0 0 0 2281 2281
39 0 0 0 0 110 110
40 0 0 0 0 10 10
41 0 0 0 0 74 74
42 0 0 0 0 438 438
43 0 0 0 0 19 19
44 0 0 0 0 549 0
45 0 0 0 0 397 397
46 0 0 0 0 25 25
47 0 0 0 0 835 835
48 0 0 0 0 134 134
49 0 0 0 0 10 10
50 0 0 0 0 59 59
51 0 0 0 0 505 505
52 0 0 0 0 -10 -10
53 0 0 0 0 0 0
54 0 0 0 0 1258 1258
55 0 0 0 0 30 0
56 0 0 0 0 1142 1142
57 0 0 0 0 234 234
58 0 0 0 0 10 10
59 0 0 0 0 208 208
60 0 0 0 0 318 318
61 0 0 0 0 10 10
62 0 0 0 0 90 0
63 0 0 0 0 3047 3047
64 0 0 0 0 35 35
65 0 0 0 0 3485 3485
66 0 0 0 0 105 105
67 0 0 0 0 10 10
68 0 0 0 0 183 183
69 0 0 0 0 0 0
70 0 0 0 0 15 15
71 0 0 0 0 336 0
72 0 0 0 0 534 534
73 0 0 0 0 40 40
74 0 0 0 0 1963 1963
75 0 0 0 0 212 212
76 0 0 0 0 10 10
77 0 0 0 0 149 149
78 0 0 0 0 0 0
79 0 0 0 0 -20 -20
80 0 0 0 0 0 0
81 0 0 0 0 14 14
82 0 0 0 0 45 45
83 0 0 0 0 2864 2864
84 0 0 0 0 222 222
85 0 0 0 0 10 10
86 0 0 0 0 124 124
87 0 0 0 0 0 0
88 0 0 0 0 -20 -20
89 0 0 0 0 0 0
90 0 0 0 0 472 472
91 0 0 0 0 50 50
92 0 0 0 0 1686 1686
93 0 0 0 0 258 258
94 0 0 0 0 10 10
95 0 0 0 0 47 47
96 0 0 0 0 123 123
97 0 0 0 0 20 20
98 0 0 0 0 244 0
99 0 0 0 0 684 684
100 0 0 0 0 55 55
101 0 0 0 0 457 457
102 0 0 0 0 77 77
103 0 0 0 0 10 10
104 0 0 0 0 45 45
105 0 0 0 0 334 334
106 0 0 0 0 -20 -20
107 0 0 0 0 0 0
108 0 0 0 0 2249 2249
109 0 0 0 0 60 0
110 0 0 0 0 789 789
111 0 0 0 0 18 18
112 0 0 0 0 10 10
113 0 0 0 0 113 113
114 0 0 0 0 0 0
115 0 0 0 0 20 20
116 0 0 0 0 559 0
117 0 0 0 0 1816 1816
118 0 0 0 0 65 0
119 0 0 0 0 938 938
120 0 0 0 0 109 109
121 0 0 0 0 10 10
122 0 0 0 0 71 71
123 0 0 0 0 383 383
124 0 0 0 0 10 10
125 0 0 0 0 205 0
126 0 0 0 0 1288 1288
127 0 0 0 0 70 70
128 0 0 0 0 1557 1557
129 0 0 0 0 255 255
130 0 0 0 0 10 10
131 0 0 0 0 122 122
132 0 0 0 0 483 483
133 0 0 0 0 17 17
134 0 0 0 0 602 0
135 0 0 0 0 613 613
136 0 0 0 0 75 75
137 0 0 0 0 523 523
138 0 0 0 0 172 172
139 0 0 0 0 10 10
140 0 0 0 0 22 22
141 0 0 0 0 399 399
142 0 0 0 0 -20 -20
143 0 0 0 0 0 0
144 0 0 0 0 0 36
145 0 0 0 0 80 80
146 0 0 0 0 813 813
147 0 0 0 0 53 53
148 0 0 0 0 10 10
149 0 0 0 0 281 281
150 0 0 0 0 392 392
DEPOT_SECTION
1 
-1
EOF
